000 000 000 000 000 000 000 -99 -99 -99 -99 -99 -99 000 000 000 -99 -99 -99 -99 -99 -99 -99 -99 000 -99 -99 -99 000 -99 000
-99 000 000 000 000 000 -99 -99 -99 -99 -99 -99 -99 000 000 000 -99 -99 -99 000 000 000 -99 -99 000 000 -99 000 000 -99 000
-99 000 000 000 000 -99 000 -99 -99 -99 -99 -99 -99 -99 -99 000 000 -99 -99 -99 000 000 000 000 000 000 -99 000 000 -99 -99
-99 000 000 000 -99 -99 -99 -99 -99 000 -99 -99 -99 -99 -99 000 000 -99 -99 -99 000 000 000 000 000 000 -99 000 000 -99 -99
000 -99 -99 000 -99 -99 -99 -99 -99 000 -99 -99 -99 -99 -99 000 000 000 -99 -99 000 000 000 000 000 000 000 -99 000 -99 -99
000 000 -99 -99 -99 -99 000 -99 000 000 -99 -99 000 000 000 000 000 -99 -99 -99 000 000 000 000 000 000 -99 -99 -99 -99 -99
000 000 -99 -99 -99 -99 000 000 000 000 000 -99 000 000 000 000 -99 -99 -99 -99 000 000 000 000 000 000 -99 -99 -99 -99 -99
000 000 -99 -99 000 -99 -99 000 000 000 000 -99 -99 000 000 -99 -99 -99 -99 -99 000 000 000 000 000 -99 -99 -99 -99 -99 -99
-99 -99 000 000 000 -99 -99 000 000 000 000 000 -99 -99 -99 -99 -99 -99 -99 -99 000 -99 -99 -99 -99 -99 -99 -99 -99 -99 -99
-99 000 000 000 000 000 -99 -99 000 -99 000 000 000 -99 -99 -99 -99 000 000 -99 000 -99 -99 -99 -99 -99 -99 -99 -99 000 -99
-99 000 000 000 000 000 -99 000 -99 -99 -99 -99 000 000 000 000 -99 000 000 -99 -99 -99 -99 000 000 -99 -99 -99 000 000 -99
000 000 000 -99 000 000 000 000 000 000 000 -99 -99 -99 002 000 -99 000 000 000 -99 -99 -99 000 000 -99 -99 -99 000 000 000
000 000 000 000 000 000 000 000 000 000 000 -99 -99 -99 008 001 000 000 000 000 000 -99 -99 000 000 000 000 -99 000 000 000
000 000 000 000 000 000 000 000 000 000 000 -99 -99 -99 009 005 000 000 000 000 000 -99 -99 000 000 000 000 -99 000 -99 -99
000 -99 000 000 000 000 000 000 000 -99 -99 -99 -99 000 002 000 000 000 000 000 000 -99 -99 000 000 000 000 000 000 -99 -99
000 -99 000 000 000 000 000 000 000 -99 -99 -99 -99 000 000 000 000 000 000 000 -99 -99 -99 000 000 000 000 000 000 -99 -99
000 000 000 000 000 000 000 000 000 -99 -99 -99 -99 000 000 000 000 000 000 000 -99 -99 000 000 000 000 000 000 000 -99 000
-99 000 -99 -99 -99 000 000 000 000 -99 -99 -99 -99 -99 000 -99 000 000 000 -99 -99 -99 000 000 000 -99 000 000 -99 -99 000
000 000 000 -99 -99 000 000 000 000 -99 -99 -99 -99 -99 000 -99 000 000 -99 -99 -99 000 000 -99 -99 -99 -99 -99 -99 000 000
000 000 000 000 -99 -99 -99 000 -99 -99 000 000 -99 -99 000 -99 000 000 -99 -99 -99 000 000 -99 -99 -99 -99 -99 -99 -99 000
000 000 000 000 000 -99 -99 -99 -99 -99 000 000 -99 -99 000 000 000 000 000 000 000 000 000 -99 -99 -99 -99 -99 -99 -99 -99
000 000 000 000 000 000 000 000 000 000 -99 000 -99 -99 000 000 000 000 000 000 000 000 000 -99 -99 -99 -99 -99 -99 -99 -99
000 000 000 000 000 000 000 000 000 000 -99 -99 -99 000 000 000 000 000 000 000 000 000 000 -99 -99 -99 -99 -99 -99 -99 -99
000 000 000 000 000 000 000 000 000 -99 -99 -99 -99 000 000 000 000 000 000 000 000 000 000 -99 -99 -99 -99 -99 -99 -99 -99
000 000 000 000 000 000 000 000 000 -99 -99 -99 -99 000 000 000 000 000 000 000 000 000 000 -99 -99 -99 -99 -99 -99 -99 -99
000 -99 000 000 000 000 000 000 000 000 -99 -99 -99 000 000 000 000 000 000 000 -99 -99 000 -99 -99 -99 -99 -99 -99 -99 -99
000 000 000 000 000 000 000 000 000 000 -99 -99 -99 -99 000 000 000 000 000 000 -99 000 -99 -99 -99 -99 -99 -99 -99 -99 -99
000 000 000 000 000 000 000 000 000 000 -99 -99 -99 -99 000 000 000 000 000 -99 000 000 -99 -99 -99 -99 -99 -99 -99 -99 000
000 000 000 000 000 000 000 000 000 000 000 000 -99 -99 000 000 000 000 000 -99 000 000 -99 -99 -99 -99 -99 -99 -99 -99 000
000 000 000 000 000 000 000 000 000 000 000 000 000 000 000 000 000 000 000 -99 000 000 -99 -99 -99 -99 -99 -99 -99 -99 -99
002 000 000 001 000 000 001 001 000 000 000 000 000 000 000 -99 000 000 000 000 000 000 -99 -99 -99 -99 -99 -99 -99 -99 -99
011 002 001 006 002 005 009 006 001 000 000 000 000 000 -99 -99 000 000 000 -99 000 000 000 000 -99 -99 -99 -99 -99 -99 000
016 006 009 035 014 017 024 012 006 000 001 000 001 000 000 000 000 000 000 -99 -99 000 000 000 -99 -99 -99 000 000 000 000
012 008 003 024 021 028 033 018 004 001 002 002 017 000 000 000 000 000 000 -99 -99 000 000 000 -99 000 000 000 000 000 000
003 003 004 008 007 030 048 029 005 008 004 016 022 002 000 000 000 000 -99 -99 -99 -99 000 000 000 000 000 000 000 000 001
003 004 004 005 003 054 031 009 009 019 006 043 021 003 000 000 000 000 -99 -99 -99 000 000 000 000 000 000 002 005 004 003
003 004 004 005 012 046 015 007 017 012 021 033 029 009 001 001 000 000 000 000 000 000 000 000 000 000 000 006 015 009 010
003 004 006 004 011 029 008 008 016 042 039 040 053 018 018 003 001 000 000 000 000 000 000 000 000 000 000 011 011 012 010
002 004 002 004 010 010 010 021 056 045 041 024 034 022 052 020 005 008 002 000 000 000 000 000 000 000 000 008 010 025 008
001 001 000 001 004 007 006 023 039 039 043 039 026 025 014 009 008 016 018 001 001 000 000 000 000 -99 001 003 022 050 037
000 000 000 001 006 009 006 011 025 035 048 024 019 016 019 013 014 015 009 001 000 000 000 000 000 000 000 001 046 089 054
001 000 000 001 008 021 008 011 016 018 048 024 015 013 015 020 011 011 002 001 000 000 000 000 000 -99 001 003 071 078 041
001 000 000 002 021 037 012 006 021 011 034 012 012 018 013 026 008 005 000 000 000 000 000 000 000 000 -99 004 030 022 026
004 001 000 005 014 024 018 009 006 006 016 010 008 014 017 027 010 001 000 000 000 000 000 -99 000 000 -99 001 007 013 004
003 003 002 013 015 031 023 010 009 013 013 010 015 028 024 017 004 000 000 000 000 -99 -99 -99 -99 -99 000 001 005 008 000
005 001 002 013 020 024 023 012 011 012 011 009 011 019 029 042 003 000 000 000 000 000 -99 000 -99 -99 000 001 005 -99 000
004 002 003 008 028 020 012 009 009 012 008 007 008 014 022 016 002 000 000 000 -99 000 000 000 -99 -99 000 -99 -99 -99 000
005 002 005 013 020 028 017 018 010 012 035 011 003 006 012 005 001 000 -99 -99 000 000 000 000 -99 000 000 000 000 -99 -99
005 004 005 017 031 048 026 028 005 020 026 008 001 003 002 000 001 -99 -99 -99 000 000 000 -99 -99 000 000 000 000 -99 -99
002 001 002 007 064 034 011 003 002 016 010 006 002 005 000 000 -99 -99 -99 -99 000 000 -99 -99 -99 000 000 000 -99 -99 -99
001 000 000 004 018 005 003 000 000 004 007 003 004 005 000 -99 -99 -99 -99 -99 000 000 -99 -99 -99 -99 000 -99 -99 -99 -99
001 000 000 001 001 001 000 000 000 002 001 001 008 001 000 -99 -99 -99 -99 -99 000 -99 -99 -99 -99 -99 -99 -99 -99 -99 -99
000 000 000 000 001 000 000 000 000 000 000 000 002 000 -99 -99 -99 -99 -99 -99 000 -99 -99 -99 -99 -99 -99 -99 -99 -99 -99
000 -99 000 000 000 000 -99 000 000 000 000 001 001 -99 -99 -99 -99 000 -99 -99 -99 -99 -99 -99 -99 -99 -99 -99 -99 000 000
-99 000 000 000 000 000 -99 000 -99 -99 -99 -99 -99 -99 -99 -99 -99 -99 -99 -99 -99 -99 -99 -99 -99 -99 -99 -99 000 000 000
